c This file was generated by genrmf.
c The parameters are: a: 6 b: 4 c1: 2 c2: 6
p max     144        588
n       1 s
n     144 t
a       1      51          2
a       1       2        216
a       1       7        216
a       2      46          4
a       2       3        216
a       2       1        216
a       2       8        216
a       3      49          4
a       3       4        216
a       3       2        216
a       3       9        216
a       4      44          6
a       4       5        216
a       4       3        216
a       4      10        216
a       5      68          5
a       5       6        216
a       5       4        216
a       5      11        216
a       6      56          5
a       6       5        216
a       6      12        216
a       7      64          5
a       7       8        216
a       7      13        216
a       7       1        216
a       8      62          4
a       8       9        216
a       8       7        216
a       8      14        216
a       8       2        216
a       9      70          6
a       9      10        216
a       9       8        216
a       9      15        216
a       9       3        216
a      10      65          3
a      10      11        216
a      10       9        216
a      10      16        216
a      10       4        216
a      11      37          5
a      11      12        216
a      11      10        216
a      11      17        216
a      11       5        216
a      12      41          2
a      12      11        216
a      12      18        216
a      12       6        216
a      13      54          3
a      13      14        216
a      13      19        216
a      13       7        216
a      14      39          5
a      14      15        216
a      14      13        216
a      14      20        216
a      14       8        216
a      15      57          6
a      15      16        216
a      15      14        216
a      15      21        216
a      15       9        216
a      16      72          4
a      16      17        216
a      16      15        216
a      16      22        216
a      16      10        216
a      17      42          5
a      17      18        216
a      17      16        216
a      17      23        216
a      17      11        216
a      18      59          6
a      18      17        216
a      18      24        216
a      18      12        216
a      19      48          3
a      19      20        216
a      19      25        216
a      19      13        216
a      20      60          5
a      20      21        216
a      20      19        216
a      20      26        216
a      20      14        216
a      21      69          4
a      21      22        216
a      21      20        216
a      21      27        216
a      21      15        216
a      22      40          5
a      22      23        216
a      22      21        216
a      22      28        216
a      22      16        216
a      23      66          5
a      23      24        216
a      23      22        216
a      23      29        216
a      23      17        216
a      24      38          4
a      24      23        216
a      24      30        216
a      24      18        216
a      25      67          3
a      25      26        216
a      25      31        216
a      25      19        216
a      26      55          6
a      26      27        216
a      26      25        216
a      26      32        216
a      26      20        216
a      27      50          4
a      27      28        216
a      27      26        216
a      27      33        216
a      27      21        216
a      28      58          4
a      28      29        216
a      28      27        216
a      28      34        216
a      28      22        216
a      29      45          5
a      29      30        216
a      29      28        216
a      29      35        216
a      29      23        216
a      30      71          6
a      30      29        216
a      30      36        216
a      30      24        216
a      31      53          6
a      31      32        216
a      31      25        216
a      32      43          2
a      32      33        216
a      32      31        216
a      32      26        216
a      33      47          6
a      33      34        216
a      33      32        216
a      33      27        216
a      34      52          6
a      34      35        216
a      34      33        216
a      34      28        216
a      35      61          5
a      35      36        216
a      35      34        216
a      35      29        216
a      36      63          4
a      36      35        216
a      36      30        216
a      37     104          4
a      37      38        216
a      37      43        216
a      38      86          2
a      38      39        216
a      38      37        216
a      38      44        216
a      39      91          4
a      39      40        216
a      39      38        216
a      39      45        216
a      40      87          6
a      40      41        216
a      40      39        216
a      40      46        216
a      41      97          2
a      41      42        216
a      41      40        216
a      41      47        216
a      42      76          4
a      42      41        216
a      42      48        216
a      43     102          3
a      43      44        216
a      43      49        216
a      43      37        216
a      44      73          3
a      44      45        216
a      44      43        216
a      44      50        216
a      44      38        216
a      45      80          5
a      45      46        216
a      45      44        216
a      45      51        216
a      45      39        216
a      46      89          4
a      46      47        216
a      46      45        216
a      46      52        216
a      46      40        216
a      47     103          3
a      47      48        216
a      47      46        216
a      47      53        216
a      47      41        216
a      48      94          6
a      48      47        216
a      48      54        216
a      48      42        216
a      49      78          6
a      49      50        216
a      49      55        216
a      49      43        216
a      50      96          2
a      50      51        216
a      50      49        216
a      50      56        216
a      50      44        216
a      51      93          6
a      51      52        216
a      51      50        216
a      51      57        216
a      51      45        216
a      52      77          6
a      52      53        216
a      52      51        216
a      52      58        216
a      52      46        216
a      53     108          6
a      53      54        216
a      53      52        216
a      53      59        216
a      53      47        216
a      54      98          2
a      54      53        216
a      54      60        216
a      54      48        216
a      55      79          5
a      55      56        216
a      55      61        216
a      55      49        216
a      56      90          4
a      56      57        216
a      56      55        216
a      56      62        216
a      56      50        216
a      57      83          6
a      57      58        216
a      57      56        216
a      57      63        216
a      57      51        216
a      58     100          2
a      58      59        216
a      58      57        216
a      58      64        216
a      58      52        216
a      59      95          2
a      59      60        216
a      59      58        216
a      59      65        216
a      59      53        216
a      60      74          3
a      60      59        216
a      60      66        216
a      60      54        216
a      61      88          6
a      61      62        216
a      61      67        216
a      61      55        216
a      62     105          5
a      62      63        216
a      62      61        216
a      62      68        216
a      62      56        216
a      63     107          5
a      63      64        216
a      63      62        216
a      63      69        216
a      63      57        216
a      64      81          3
a      64      65        216
a      64      63        216
a      64      70        216
a      64      58        216
a      65      84          6
a      65      66        216
a      65      64        216
a      65      71        216
a      65      59        216
a      66      75          6
a      66      65        216
a      66      72        216
a      66      60        216
a      67      82          2
a      67      68        216
a      67      61        216
a      68      92          2
a      68      69        216
a      68      67        216
a      68      62        216
a      69     101          6
a      69      70        216
a      69      68        216
a      69      63        216
a      70      85          4
a      70      71        216
a      70      69        216
a      70      64        216
a      71      99          6
a      71      72        216
a      71      70        216
a      71      65        216
a      72     106          3
a      72      71        216
a      72      66        216
a      73     121          5
a      73      74        216
a      73      79        216
a      74     141          5
a      74      75        216
a      74      73        216
a      74      80        216
a      75     138          3
a      75      76        216
a      75      74        216
a      75      81        216
a      76     133          2
a      76      77        216
a      76      75        216
a      76      82        216
a      77     135          4
a      77      78        216
a      77      76        216
a      77      83        216
a      78     120          2
a      78      77        216
a      78      84        216
a      79     128          2
a      79      80        216
a      79      85        216
a      79      73        216
a      80     118          2
a      80      81        216
a      80      79        216
a      80      86        216
a      80      74        216
a      81     115          5
a      81      82        216
a      81      80        216
a      81      87        216
a      81      75        216
a      82     113          4
a      82      83        216
a      82      81        216
a      82      88        216
a      82      76        216
a      83     134          5
a      83      84        216
a      83      82        216
a      83      89        216
a      83      77        216
a      84     109          6
a      84      83        216
a      84      90        216
a      84      78        216
a      85     143          5
a      85      86        216
a      85      91        216
a      85      79        216
a      86     117          5
a      86      87        216
a      86      85        216
a      86      92        216
a      86      80        216
a      87     142          2
a      87      88        216
a      87      86        216
a      87      93        216
a      87      81        216
a      88     125          6
a      88      89        216
a      88      87        216
a      88      94        216
a      88      82        216
a      89     139          5
a      89      90        216
a      89      88        216
a      89      95        216
a      89      83        216
a      90     124          2
a      90      89        216
a      90      96        216
a      90      84        216
a      91     116          6
a      91      92        216
a      91      97        216
a      91      85        216
a      92     122          3
a      92      93        216
a      92      91        216
a      92      98        216
a      92      86        216
a      93     144          3
a      93      94        216
a      93      92        216
a      93      99        216
a      93      87        216
a      94     136          6
a      94      95        216
a      94      93        216
a      94     100        216
a      94      88        216
a      95     127          4
a      95      96        216
a      95      94        216
a      95     101        216
a      95      89        216
a      96     112          6
a      96      95        216
a      96     102        216
a      96      90        216
a      97     110          5
a      97      98        216
a      97     103        216
a      97      91        216
a      98     137          4
a      98      99        216
a      98      97        216
a      98     104        216
a      98      92        216
a      99     126          2
a      99     100        216
a      99      98        216
a      99     105        216
a      99      93        216
a     100     111          3
a     100     101        216
a     100      99        216
a     100     106        216
a     100      94        216
a     101     129          2
a     101     102        216
a     101     100        216
a     101     107        216
a     101      95        216
a     102     131          5
a     102     101        216
a     102     108        216
a     102      96        216
a     103     132          4
a     103     104        216
a     103      97        216
a     104     119          6
a     104     105        216
a     104     103        216
a     104      98        216
a     105     114          3
a     105     106        216
a     105     104        216
a     105      99        216
a     106     130          6
a     106     107        216
a     106     105        216
a     106     100        216
a     107     140          4
a     107     108        216
a     107     106        216
a     107     101        216
a     108     123          4
a     108     107        216
a     108     102        216
a     109     110        216
a     109     115        216
a     110     111        216
a     110     109        216
a     110     116        216
a     111     112        216
a     111     110        216
a     111     117        216
a     112     113        216
a     112     111        216
a     112     118        216
a     113     114        216
a     113     112        216
a     113     119        216
a     114     113        216
a     114     120        216
a     115     116        216
a     115     121        216
a     115     109        216
a     116     117        216
a     116     115        216
a     116     122        216
a     116     110        216
a     117     118        216
a     117     116        216
a     117     123        216
a     117     111        216
a     118     119        216
a     118     117        216
a     118     124        216
a     118     112        216
a     119     120        216
a     119     118        216
a     119     125        216
a     119     113        216
a     120     119        216
a     120     126        216
a     120     114        216
a     121     122        216
a     121     127        216
a     121     115        216
a     122     123        216
a     122     121        216
a     122     128        216
a     122     116        216
a     123     124        216
a     123     122        216
a     123     129        216
a     123     117        216
a     124     125        216
a     124     123        216
a     124     130        216
a     124     118        216
a     125     126        216
a     125     124        216
a     125     131        216
a     125     119        216
a     126     125        216
a     126     132        216
a     126     120        216
a     127     128        216
a     127     133        216
a     127     121        216
a     128     129        216
a     128     127        216
a     128     134        216
a     128     122        216
a     129     130        216
a     129     128        216
a     129     135        216
a     129     123        216
a     130     131        216
a     130     129        216
a     130     136        216
a     130     124        216
a     131     132        216
a     131     130        216
a     131     137        216
a     131     125        216
a     132     131        216
a     132     138        216
a     132     126        216
a     133     134        216
a     133     139        216
a     133     127        216
a     134     135        216
a     134     133        216
a     134     140        216
a     134     128        216
a     135     136        216
a     135     134        216
a     135     141        216
a     135     129        216
a     136     137        216
a     136     135        216
a     136     142        216
a     136     130        216
a     137     138        216
a     137     136        216
a     137     143        216
a     137     131        216
a     138     137        216
a     138     144        216
a     138     132        216
a     139     140        216
a     139     133        216
a     140     141        216
a     140     139        216
a     140     134        216
a     141     142        216
a     141     140        216
a     141     135        216
a     142     143        216
a     142     141        216
a     142     136        216
a     143     144        216
a     143     142        216
a     143     137        216
a     144     143        216
a     144     138        216
